
%FILE DATA:	Soccer Computational Problem for MiniZinc Models	%
%AUTHOR:	Jack Wall	%
%CONTACT:  	116397063@umail.ucc.ie			%
%LAST UPDATE:	03/16/2020, 15:01:12						%
%DESCRIPTION: 	195 games played with 15 games left				%


n=15; %number of teams

%Games to play
games=[|2,8|1,14|4,12|12,8|11,15|6,5|5,9|7,8|9,5|12,14|9,2|7,2|10,12|5,10|13,6|];

%Initial points
iPoints=[32,29,37,41,31,39,29,44,33,30,39,34,37,32,34];

%POSITION CONSTRAINTS
% [|teamID, operator, position|...]
% operators index:
%  1 for =  operator
%  2 for >  operator
%  3 for >= operator
%  4 for <  operator
%  5 for <= operator
positionConstraints=[|8,1,1|4,4,3|11,5,3|6,5,4|];